c WARNING: for repeatability, setting FPU to use double precision
d VARIABLES            73566        
d CONSTRAINTS          260404       
c ============================[ Problem Statistics ]=============================
c |                                                                             |
c |  Number of variables:         73566                                         |
c |  Number of clauses:          260404                                         |
c |  Parse time:                   0.04 s                                       |
c |                                                                             |
c ============================[ Search Statistics ]==============================
c | Conflicts |          ORIGINAL         |          LEARNT          | Progress |
c |           |    Vars  Clauses Literals |    Limit  Clauses Lit/Cl |          |
c ===============================================================================
c |       100 |   53486   208382   523867 |    76406      100      9 | 27.295 % |
c |       250 |   53486   208382   523867 |    84047      250     12 | 27.295 % |
c |       475 |   53486   208382   523867 |    92452      475     17 | 27.295 % |
c |       812 |   53486   208382   523867 |   101697      812     18 | 27.295 % |
c |      1318 |   53486   208382   523867 |   111867     1318     28 | 27.295 % |
c |      2077 |   53486   208382   523867 |   123053     2077     31 | 27.295 % |
c |      3216 |   53486   208382   523867 |   135359     3216     45 | 27.295 % |
c |      4924 |   53486   208382   523867 |   148895     4924     46 | 27.295 % |
c |      7486 |   53486   208382   523867 |   163784     7486     57 | 27.295 % |
c |     11330 |   53486   208382   523867 |   180163    11330     58 | 27.295 % |
c |     17096 |   53486   208382   523867 |   198179    17096     59 | 27.295 % |
c |     25745 |   53486   208382   523867 |   217997    25745     59 | 27.295 % |
c |     38719 |   53486   208382   523867 |   239797    38719     60 | 27.295 % |
c |     58180 |   53486   208382   523867 |   263776    58180     60 | 27.295 % |
c |     87372 |   53443   208204   523424 |   290154    82795     57 | 27.354 % |
c ===============================================================================
c restarts              : 255
c conflicts             : 92470          (3276 /sec)
c decisions             : 232952         (0.00 % random) (8252 /sec)
c propagations          : 143026098      (5066500 /sec)
c conflict literals     : 5167744        (47.66 % deleted)
d RESTARTS             255
d FAILURES             92470        
d NODES                232952       
d BACKTRACKS           232952       
d PROPAGATIONS         143026098    
d NOGOODSIZE           55.89 
d MEMORY               63.00 
d TIME                 28.2298 

s UNSATISFIABLE
